1506.78
0 55 26 38 52 56 59 44 11 64 19 74 15 53 63 61 67 10 42 12 31 8 3 14 37 49 1 30 39 25 66 16 27 36 20 9 29 21 54 7 33 41 17 40 68 71 13 28 34 18 24 72 45 65 6 4 58 32 5 62 43 69 51 73 48 23 2 60 35 22 50 70 57 46 47
